Bi  V  O                                
   1.00000000000000     
    14.3941454970295748   -0.0005400683266875   -0.0035778310946224
    -0.0005676768220936   11.4910403787063995    0.0002467112392544
    -7.1956335522900394   -0.0009173175676488    7.2068988370001295
   Bi   V    O 
    16    16    64
Direct
  0.0013336577263476  0.6276558114983397  0.1250650800368380
  0.2508927693586914  0.8765083892361618  0.8742984782791881
  0.5007916668812490  0.3781641157780124  0.8748105880126306
  0.5012155998595779  0.6269247681054305  0.6250338335805125
  0.5011129519117974  0.6276575914264221  0.1248447283269763
  0.0012014698666780  0.6269224410533168  0.6248347754733283
  0.7511724307564873  0.1272569720494750  0.6250313110107799
  0.0010353244221920  0.3783647123894995  0.8754170223739248
  0.7517896758498304  0.8763203903574184  0.3758477524553320
  0.7511673220272327  0.1262470504574405  0.1250340077170418
  0.5014503081852985  0.3783765436464777  0.3745932437062005
  0.2514615108701704  0.8765138854021565  0.3758178701620551
  0.2511580425271631  0.1283541069890019  0.1250286617314454
  0.0016815181227960  0.3781642075958134  0.3751594170292682
  0.2511609322465468  0.1273185865187711  0.6250466948793346
  0.7505779060878345  0.8763204796530655  0.8742820277484715
  0.0001129846694612  0.1275539925111603  0.1229456266731195
  0.0011724531743044  0.8782953622755837  0.3741320751392224
  0.2512457305030128  0.6270453748903465  0.1249718388178092
  0.2520898094032809  0.3763168096882007  0.3758552727740945
  0.2512621068577829  0.6272539029318790  0.6249976035106936
  0.0001349182953151  0.8793000009136848  0.8738895847888666
  0.0001667269010414  0.1269778420378363  0.6250267899101402
  0.5021793799559464  0.8792713944117652  0.3760847016679680
  0.7512369303369101  0.6274612080431325  0.1249525925710555
  0.7511636384648422  0.3754050552334341  0.3759415340483371
  0.7513050441564132  0.3753910619569168  0.8740374742399920
  0.7512571298470967  0.6272623815438835  0.6249845050412198
  0.5011330820014903  0.8783132339815568  0.8758291735840491
  0.5021652841188380  0.1269333863951537  0.6249666797638794
  0.5022579430153508  0.1275251280603725  0.1270930532084128
  0.2503709261575097  0.3763288803798014  0.8740981735788180
  0.8766814096114028  0.5481735537658605  0.3188354327170880
  0.6815323906776531  0.2952171555186045  0.4327162397370213
  0.6262620584853376  0.5479496063463227  0.4305713037038305
  0.8764542802687688  0.4544364609693542  0.0681346734571077
  0.8202872005426332  0.7061714635294004  0.0679657723930119
  0.8210066853262951  0.2970562334347394  0.3208376606940852
  0.6821766697810281  0.7060868113273867  0.1819605624412527
  0.9314530507773693  0.7988229961271838  0.4289869525739880
  0.5707477822364553  0.2063734979519809  0.0706575281553391
  0.5707026499637730  0.7993003299063551  0.3199054312070824
  0.9316958217407351  0.2063881947559609  0.1794918785084464
  0.6261228903633786  0.4544355531583699  0.1817816635728051
  0.6256191947880156  0.9579389608217497  0.0715722484169048
  0.8764464950004128  0.9577671439610654  0.1783100218843297
  0.6308429879724405  0.0507404755431175  0.3289675587055475
  0.8714200968617075  0.0508214055939253  0.9210356597188000
  0.6284377617544240  0.9594783082087234  0.5720223242902890
  0.8763540597554181  0.5480131593997823  0.8193864807011880
  0.6266471637701573  0.4552689024815127  0.6809026089555423
  0.6259102531773869  0.5481125198278057  0.9310417018193774
  0.8758923490480094  0.4553212867883889  0.5690202905586446
  0.8779915128970008  0.0471959785564217  0.4306947605664347
  0.6815349633350837  0.2971166802614946  0.9293188242505700
  0.8209833406952927  0.2951598095442570  0.8173732630345770
  0.6818566231692740  0.7066298680570672  0.6806312463818850
  0.9317915878016890  0.7992673485354979  0.9302780407128349
  0.5755611544114633  0.2038242983972686  0.5697888940593707
  0.5710566293695170  0.7988535262135020  0.8212789441738004
  0.9269252224072804  0.2038124276343375  0.6804780334337904
  0.8206279581272411  0.7066796692151245  0.5692987788275011
  0.8736771876001972  0.9593614399290169  0.6778362359567593
  0.1249970724428623  0.0481828132914069  0.8182935887589835
  0.3780123635578403  0.0481896679770024  0.9331795166025292
  0.3771560660313746  0.0482642934750169  0.4315108536909649
  0.1250637268944224  0.9575239772884186  0.0686046048347264
  0.3773487670092254  0.5485170719212304  0.3200426998033394
  0.1276103796466582  0.4556448955777007  0.1815196260787418
  0.1260300670292587  0.5480822685162537  0.4304040256976813
  0.3749025027295966  0.4556903593979151  0.0683901202265630
  0.3750377264162609  0.9561512957697305  0.6801560558916966
  0.1824841571332933  0.2982974600233186  0.4323005103990527
  0.3233272296791050  0.2966152975546958  0.3225213719605508
  0.1827108167995936  0.7064151004970769  0.1818569618811249
  0.4331920059982926  0.8000843544546880  0.4322276488849904
  0.0723599288968376  0.2074605015136587  0.0730547934205834
  0.0705009817939187  0.7984183922624419  0.3187526394140433
  0.4301412567752927  0.2074400810691123  0.1771453343889200
  0.3197470593581250  0.7065169876377997  0.0680749773756457
  0.1241463701807069  0.0480981190777301  0.3167125518685082
  0.3771005171284683  0.9573582208565792  0.1812624802900630
  0.1791830060935968  0.2966869783203351  0.9275612686548902
  0.1270872415582436  0.9562828262087624  0.5696707074976524
  0.3766086927128640  0.5481484868119774  0.8195923903564000
  0.1257139148042705  0.4561039907876466  0.6801757716376794
  0.1252339588651564  0.5484686215972207  0.9298994753166816
  0.3768218805771035  0.4561156253316243  0.5697396846507027
  0.4324580055533634  0.2064421610954595  0.6794163299464085
  0.3205757499093674  0.7065172031473433  0.5689981928638140
  0.6241778255219552  0.0470697176641984  0.8192137445692905
  0.1819088015098762  0.7064584119567795  0.6809479009275398
  0.4319311233479060  0.7983647580821752  0.9313232341835611
  0.0699806185535339  0.2064976334382287  0.5707184511985702
  0.0692472921135332  0.8001415354557163  0.8179244327391878
  0.3200460591025557  0.2982712017676908  0.8177754455387900
 
  0.00000000E+00  0.00000000E+00  0.00000000E+00
  0.00000000E+00  0.00000000E+00  0.00000000E+00
  0.00000000E+00  0.00000000E+00  0.00000000E+00
  0.00000000E+00  0.00000000E+00  0.00000000E+00
  0.00000000E+00  0.00000000E+00  0.00000000E+00
  0.00000000E+00  0.00000000E+00  0.00000000E+00
  0.00000000E+00  0.00000000E+00  0.00000000E+00
  0.00000000E+00  0.00000000E+00  0.00000000E+00
  0.00000000E+00  0.00000000E+00  0.00000000E+00
  0.00000000E+00  0.00000000E+00  0.00000000E+00
  0.00000000E+00  0.00000000E+00  0.00000000E+00
  0.00000000E+00  0.00000000E+00  0.00000000E+00
  0.00000000E+00  0.00000000E+00  0.00000000E+00
  0.00000000E+00  0.00000000E+00  0.00000000E+00
  0.00000000E+00  0.00000000E+00  0.00000000E+00
  0.00000000E+00  0.00000000E+00  0.00000000E+00
  0.00000000E+00  0.00000000E+00  0.00000000E+00
  0.00000000E+00  0.00000000E+00  0.00000000E+00
  0.00000000E+00  0.00000000E+00  0.00000000E+00
  0.00000000E+00  0.00000000E+00  0.00000000E+00
  0.00000000E+00  0.00000000E+00  0.00000000E+00
  0.00000000E+00  0.00000000E+00  0.00000000E+00
  0.00000000E+00  0.00000000E+00  0.00000000E+00
  0.00000000E+00  0.00000000E+00  0.00000000E+00
  0.00000000E+00  0.00000000E+00  0.00000000E+00
  0.00000000E+00  0.00000000E+00  0.00000000E+00
  0.00000000E+00  0.00000000E+00  0.00000000E+00
  0.00000000E+00  0.00000000E+00  0.00000000E+00
  0.00000000E+00  0.00000000E+00  0.00000000E+00
  0.00000000E+00  0.00000000E+00  0.00000000E+00
  0.00000000E+00  0.00000000E+00  0.00000000E+00
  0.00000000E+00  0.00000000E+00  0.00000000E+00
  0.00000000E+00  0.00000000E+00  0.00000000E+00
  0.00000000E+00  0.00000000E+00  0.00000000E+00
  0.00000000E+00  0.00000000E+00  0.00000000E+00
  0.00000000E+00  0.00000000E+00  0.00000000E+00
  0.00000000E+00  0.00000000E+00  0.00000000E+00
  0.00000000E+00  0.00000000E+00  0.00000000E+00
  0.00000000E+00  0.00000000E+00  0.00000000E+00
  0.00000000E+00  0.00000000E+00  0.00000000E+00
  0.00000000E+00  0.00000000E+00  0.00000000E+00
  0.00000000E+00  0.00000000E+00  0.00000000E+00
  0.00000000E+00  0.00000000E+00  0.00000000E+00
  0.00000000E+00  0.00000000E+00  0.00000000E+00
  0.00000000E+00  0.00000000E+00  0.00000000E+00
  0.00000000E+00  0.00000000E+00  0.00000000E+00
  0.00000000E+00  0.00000000E+00  0.00000000E+00
  0.00000000E+00  0.00000000E+00  0.00000000E+00
  0.00000000E+00  0.00000000E+00  0.00000000E+00
  0.00000000E+00  0.00000000E+00  0.00000000E+00
  0.00000000E+00  0.00000000E+00  0.00000000E+00
  0.00000000E+00  0.00000000E+00  0.00000000E+00
  0.00000000E+00  0.00000000E+00  0.00000000E+00
  0.00000000E+00  0.00000000E+00  0.00000000E+00
  0.00000000E+00  0.00000000E+00  0.00000000E+00
  0.00000000E+00  0.00000000E+00  0.00000000E+00
  0.00000000E+00  0.00000000E+00  0.00000000E+00
  0.00000000E+00  0.00000000E+00  0.00000000E+00
  0.00000000E+00  0.00000000E+00  0.00000000E+00
  0.00000000E+00  0.00000000E+00  0.00000000E+00
  0.00000000E+00  0.00000000E+00  0.00000000E+00
  0.00000000E+00  0.00000000E+00  0.00000000E+00
  0.00000000E+00  0.00000000E+00  0.00000000E+00
  0.00000000E+00  0.00000000E+00  0.00000000E+00
  0.00000000E+00  0.00000000E+00  0.00000000E+00
  0.00000000E+00  0.00000000E+00  0.00000000E+00
  0.00000000E+00  0.00000000E+00  0.00000000E+00
  0.00000000E+00  0.00000000E+00  0.00000000E+00
  0.00000000E+00  0.00000000E+00  0.00000000E+00
  0.00000000E+00  0.00000000E+00  0.00000000E+00
  0.00000000E+00  0.00000000E+00  0.00000000E+00
  0.00000000E+00  0.00000000E+00  0.00000000E+00
  0.00000000E+00  0.00000000E+00  0.00000000E+00
  0.00000000E+00  0.00000000E+00  0.00000000E+00
  0.00000000E+00  0.00000000E+00  0.00000000E+00
  0.00000000E+00  0.00000000E+00  0.00000000E+00
  0.00000000E+00  0.00000000E+00  0.00000000E+00
  0.00000000E+00  0.00000000E+00  0.00000000E+00
  0.00000000E+00  0.00000000E+00  0.00000000E+00
  0.00000000E+00  0.00000000E+00  0.00000000E+00
  0.00000000E+00  0.00000000E+00  0.00000000E+00
  0.00000000E+00  0.00000000E+00  0.00000000E+00
  0.00000000E+00  0.00000000E+00  0.00000000E+00
  0.00000000E+00  0.00000000E+00  0.00000000E+00
  0.00000000E+00  0.00000000E+00  0.00000000E+00
  0.00000000E+00  0.00000000E+00  0.00000000E+00
  0.00000000E+00  0.00000000E+00  0.00000000E+00
  0.00000000E+00  0.00000000E+00  0.00000000E+00
  0.00000000E+00  0.00000000E+00  0.00000000E+00
  0.00000000E+00  0.00000000E+00  0.00000000E+00
  0.00000000E+00  0.00000000E+00  0.00000000E+00
  0.00000000E+00  0.00000000E+00  0.00000000E+00
  0.00000000E+00  0.00000000E+00  0.00000000E+00
  0.00000000E+00  0.00000000E+00  0.00000000E+00
  0.00000000E+00  0.00000000E+00  0.00000000E+00
  0.00000000E+00  0.00000000E+00  0.00000000E+00
