Bi  V  O                                
   1.00000000000000     
    14.4428244400393204    0.0000000000000000   -0.1281869988156588
     0.0000000000000000   11.5596455051647524    0.0000000000000000
    -7.1432833254852994    0.0000000000000000    7.3013360973359944
   Bi   V    O 
    16    16    64
Direct
  0.0000000000000000  0.6251453715100523  0.1250000000000000
  0.2500000000000000  0.8748546284899477  0.8750000000000000
  0.5000000000000000  0.3748546284899477  0.8750000000000000
  0.5000000000000000  0.6251453715100523  0.6250000000000000
  0.5000000000000000  0.6251453715100523  0.1250000000000000
  0.0000000000000000  0.6251453715100523  0.6250000000000000
  0.7500000000000000  0.1251453715100525  0.6250000000000000
  0.0000000000000000  0.3748546284899477  0.8750000000000000
  0.7500000000000000  0.8748546284899477  0.3750000000000000
  0.7500000000000000  0.1251453715100525  0.1250000000000000
  0.5000000000000000  0.3748546284899477  0.3750000000000000
  0.2500000000000000  0.8748546284899477  0.3750000000000000
  0.2500000000000000  0.1251453715100525  0.1250000000000000
  0.0000000000000000  0.3748546284899477  0.3750000000000000
  0.2500000000000000  0.1251453715100525  0.6250000000000000
  0.7500000000000000  0.8748546284899477  0.8750000000000000
  0.0000000000000000  0.1249791480563862  0.1250000000000000
  0.0000000000000000  0.8750208219436116  0.3750000000000000
  0.2500000000000000  0.6249791780563884  0.1250000000000000
  0.2500000000000000  0.3750208519436138  0.3750000000000000
  0.2500000000000000  0.6249791780563884  0.6250000000000000
  0.0000000000000000  0.8750208219436116  0.8750000000000000
  0.0000000000000000  0.1249791480563862  0.6250000000000000
  0.5000000000000000  0.8750208219436116  0.3750000000000000
  0.7500000000000000  0.6249791780563884  0.1250000000000000
  0.7500000000000000  0.3750208519436138  0.3750000000000000
  0.7500000000000000  0.3750208519436138  0.8750000000000000
  0.7500000000000000  0.6249791780563884  0.6250000000000000
  0.5000000000000000  0.8750208219436116  0.8750000000000000
  0.5000000000000000  0.1249791480563862  0.6250000000000000
  0.5000000000000000  0.1249791480563862  0.1250000000000000
  0.2500000000000000  0.3750208519436138  0.8750000000000000
  0.8748086346985023  0.5464995934138531  0.3190143769195620
  0.6806700357749964  0.2962408468350227  0.4307492741997638
  0.6251913653014977  0.5464995934138531  0.4309856230804380
  0.8748086346985023  0.4535004365861431  0.0690143804195674
  0.8193299642250036  0.7037591531649694  0.0692507258002362
  0.8193299642250036  0.2962408468350227  0.3192507258002362
  0.6806700357749964  0.7037591531649694  0.1807492741997637
  0.9306700357749964  0.7962408468350306  0.4307492741997638
  0.5693299642250036  0.2037591671649710  0.0692507258002362
  0.5693299642250036  0.7962408468350306  0.3192507258002362
  0.9306700357749964  0.2037591671649710  0.1807492741997637
  0.6251913653014977  0.4535004365861431  0.1809856230804311
  0.6248086346985023  0.9535004065861469  0.0690143804195674
  0.8751913653014977  0.9535004065861469  0.1809856230804311
  0.6248086346985023  0.0464995634138568  0.3190143769195620
  0.8751913653014977  0.0464995634138568  0.9309856230804384
  0.6248086346985023  0.9535004065861469  0.5690143804195672
  0.8748086346985023  0.5464995934138531  0.8190143769195616
  0.6251913653014977  0.4535004365861431  0.6809856230804313
  0.6251913653014977  0.5464995934138531  0.9309856230804384
  0.8748086346985023  0.4535004365861431  0.5690143804195672
  0.8751913653014977  0.0464995634138568  0.4309856230804380
  0.6806700357749964  0.2962408468350227  0.9307492741997632
  0.8193299642250036  0.2962408468350227  0.8192507258002368
  0.6806700357749964  0.7037591531649694  0.6807492741997632
  0.9306700357749964  0.7962408468350306  0.9307492741997632
  0.5693299642250036  0.2037591671649710  0.5692507258002368
  0.5693299642250036  0.7962408468350306  0.8192507258002368
  0.9306700357749964  0.2037591671649710  0.6807492741997632
  0.8193299642250036  0.7037591531649694  0.5692507258002368
  0.8751913653014977  0.9535004065861469  0.6809856230804313
  0.1248086346985030  0.0464995634138568  0.8190143769195616
  0.3751913653014972  0.0464995634138568  0.9309856230804384
  0.3751913653014972  0.0464995634138568  0.4309856230804380
  0.1248086346985030  0.9535004065861469  0.0690143804195674
  0.3748086346985028  0.5464995934138531  0.3190143769195620
  0.1251913653014970  0.4535004365861431  0.1809856230804311
  0.1251913653014970  0.5464995934138531  0.4309856230804380
  0.3748086346985028  0.4535004365861431  0.0690143804195674
  0.3751913653014972  0.9535004065861469  0.6809856230804313
  0.1806700357749962  0.2962408468350227  0.4307492741997638
  0.3193299642250038  0.2962408468350227  0.3192507258002362
  0.1806700357749962  0.7037591531649694  0.1807492741997637
  0.4306700357749962  0.7962408468350306  0.4307492741997638
  0.0693299642250037  0.2037591671649710  0.0692507258002362
  0.0693299642250037  0.7962408468350306  0.3192507258002362
  0.4306700357749962  0.2037591671649710  0.1807492741997637
  0.3193299642250038  0.7037591531649694  0.0692507258002362
  0.1248086346985030  0.0464995634138568  0.3190143769195620
  0.3751913653014972  0.9535004065861469  0.1809856230804311
  0.1806700357749962  0.2962408468350227  0.9307492741997632
  0.1248086346985030  0.9535004065861469  0.5690143804195672
  0.3748086346985028  0.5464995934138531  0.8190143769195616
  0.1251913653014970  0.4535004365861431  0.6809856230804313
  0.1251913653014970  0.5464995934138531  0.9309856230804384
  0.3748086346985028  0.4535004365861431  0.5690143804195672
  0.4306700357749962  0.2037591671649710  0.6807492741997632
  0.3193299642250038  0.7037591531649694  0.5692507258002368
  0.6248086346985023  0.0464995634138568  0.8190143769195616
  0.1806700357749962  0.7037591531649694  0.6807492741997632
  0.4306700357749962  0.7962408468350306  0.9307492741997632
  0.0693299642250037  0.2037591671649710  0.5692507258002368
  0.0693299642250037  0.7962408468350306  0.8192507258002368
  0.3193299642250038  0.2962408468350227  0.8192507258002368
 
  0.00000000E+00  0.00000000E+00  0.00000000E+00
  0.00000000E+00  0.00000000E+00  0.00000000E+00
  0.00000000E+00  0.00000000E+00  0.00000000E+00
  0.00000000E+00  0.00000000E+00  0.00000000E+00
  0.00000000E+00  0.00000000E+00  0.00000000E+00
  0.00000000E+00  0.00000000E+00  0.00000000E+00
  0.00000000E+00  0.00000000E+00  0.00000000E+00
  0.00000000E+00  0.00000000E+00  0.00000000E+00
  0.00000000E+00  0.00000000E+00  0.00000000E+00
  0.00000000E+00  0.00000000E+00  0.00000000E+00
  0.00000000E+00  0.00000000E+00  0.00000000E+00
  0.00000000E+00  0.00000000E+00  0.00000000E+00
  0.00000000E+00  0.00000000E+00  0.00000000E+00
  0.00000000E+00  0.00000000E+00  0.00000000E+00
  0.00000000E+00  0.00000000E+00  0.00000000E+00
  0.00000000E+00  0.00000000E+00  0.00000000E+00
  0.00000000E+00  0.00000000E+00  0.00000000E+00
  0.00000000E+00  0.00000000E+00  0.00000000E+00
  0.00000000E+00  0.00000000E+00  0.00000000E+00
  0.00000000E+00  0.00000000E+00  0.00000000E+00
  0.00000000E+00  0.00000000E+00  0.00000000E+00
  0.00000000E+00  0.00000000E+00  0.00000000E+00
  0.00000000E+00  0.00000000E+00  0.00000000E+00
  0.00000000E+00  0.00000000E+00  0.00000000E+00
  0.00000000E+00  0.00000000E+00  0.00000000E+00
  0.00000000E+00  0.00000000E+00  0.00000000E+00
  0.00000000E+00  0.00000000E+00  0.00000000E+00
  0.00000000E+00  0.00000000E+00  0.00000000E+00
  0.00000000E+00  0.00000000E+00  0.00000000E+00
  0.00000000E+00  0.00000000E+00  0.00000000E+00
  0.00000000E+00  0.00000000E+00  0.00000000E+00
  0.00000000E+00  0.00000000E+00  0.00000000E+00
  0.00000000E+00  0.00000000E+00  0.00000000E+00
  0.00000000E+00  0.00000000E+00  0.00000000E+00
  0.00000000E+00  0.00000000E+00  0.00000000E+00
  0.00000000E+00  0.00000000E+00  0.00000000E+00
  0.00000000E+00  0.00000000E+00  0.00000000E+00
  0.00000000E+00  0.00000000E+00  0.00000000E+00
  0.00000000E+00  0.00000000E+00  0.00000000E+00
  0.00000000E+00  0.00000000E+00  0.00000000E+00
  0.00000000E+00  0.00000000E+00  0.00000000E+00
  0.00000000E+00  0.00000000E+00  0.00000000E+00
  0.00000000E+00  0.00000000E+00  0.00000000E+00
  0.00000000E+00  0.00000000E+00  0.00000000E+00
  0.00000000E+00  0.00000000E+00  0.00000000E+00
  0.00000000E+00  0.00000000E+00  0.00000000E+00
  0.00000000E+00  0.00000000E+00  0.00000000E+00
  0.00000000E+00  0.00000000E+00  0.00000000E+00
  0.00000000E+00  0.00000000E+00  0.00000000E+00
  0.00000000E+00  0.00000000E+00  0.00000000E+00
  0.00000000E+00  0.00000000E+00  0.00000000E+00
  0.00000000E+00  0.00000000E+00  0.00000000E+00
  0.00000000E+00  0.00000000E+00  0.00000000E+00
  0.00000000E+00  0.00000000E+00  0.00000000E+00
  0.00000000E+00  0.00000000E+00  0.00000000E+00
  0.00000000E+00  0.00000000E+00  0.00000000E+00
  0.00000000E+00  0.00000000E+00  0.00000000E+00
  0.00000000E+00  0.00000000E+00  0.00000000E+00
  0.00000000E+00  0.00000000E+00  0.00000000E+00
  0.00000000E+00  0.00000000E+00  0.00000000E+00
  0.00000000E+00  0.00000000E+00  0.00000000E+00
  0.00000000E+00  0.00000000E+00  0.00000000E+00
  0.00000000E+00  0.00000000E+00  0.00000000E+00
  0.00000000E+00  0.00000000E+00  0.00000000E+00
  0.00000000E+00  0.00000000E+00  0.00000000E+00
  0.00000000E+00  0.00000000E+00  0.00000000E+00
  0.00000000E+00  0.00000000E+00  0.00000000E+00
  0.00000000E+00  0.00000000E+00  0.00000000E+00
  0.00000000E+00  0.00000000E+00  0.00000000E+00
  0.00000000E+00  0.00000000E+00  0.00000000E+00
  0.00000000E+00  0.00000000E+00  0.00000000E+00
  0.00000000E+00  0.00000000E+00  0.00000000E+00
  0.00000000E+00  0.00000000E+00  0.00000000E+00
  0.00000000E+00  0.00000000E+00  0.00000000E+00
  0.00000000E+00  0.00000000E+00  0.00000000E+00
  0.00000000E+00  0.00000000E+00  0.00000000E+00
  0.00000000E+00  0.00000000E+00  0.00000000E+00
  0.00000000E+00  0.00000000E+00  0.00000000E+00
  0.00000000E+00  0.00000000E+00  0.00000000E+00
  0.00000000E+00  0.00000000E+00  0.00000000E+00
  0.00000000E+00  0.00000000E+00  0.00000000E+00
  0.00000000E+00  0.00000000E+00  0.00000000E+00
  0.00000000E+00  0.00000000E+00  0.00000000E+00
  0.00000000E+00  0.00000000E+00  0.00000000E+00
  0.00000000E+00  0.00000000E+00  0.00000000E+00
  0.00000000E+00  0.00000000E+00  0.00000000E+00
  0.00000000E+00  0.00000000E+00  0.00000000E+00
  0.00000000E+00  0.00000000E+00  0.00000000E+00
  0.00000000E+00  0.00000000E+00  0.00000000E+00
  0.00000000E+00  0.00000000E+00  0.00000000E+00
  0.00000000E+00  0.00000000E+00  0.00000000E+00
  0.00000000E+00  0.00000000E+00  0.00000000E+00
  0.00000000E+00  0.00000000E+00  0.00000000E+00
  0.00000000E+00  0.00000000E+00  0.00000000E+00
  0.00000000E+00  0.00000000E+00  0.00000000E+00
  0.00000000E+00  0.00000000E+00  0.00000000E+00
